(declare-const |x':58| Int)
(declare-const havoc Int)
(declare-const return@width Int)
(declare-const |return':60| Int)
(declare-const return@pos Int)
(declare-const |K:69| Int)
(declare-const return Int)
(declare-const |return@width':62| Int)
(declare-const |return@pos':61| Int)
(declare-const |c':59| Int)
(declare-const c Int)
(assert (and (or (not (<= (- |K:69|) 0)) (= (+ (- havoc) |x':58| |K:69|) 0))
               (or (and (= |K:69| 0)
                          (= (+ (- |return@width':62|) return@width) 0)
                          (= (+ (- |return@pos':61|) return@pos) 0)
                          (= (+ (- |return':60|) return) 0)
                          (= (+ (- |c':59|) c) 0) (= (+ havoc (- |x':58|)) 0))
                     (and (<= (+ (- |K:69|) 1) 0) (<= (+ (- havoc) 1) 0)
                            (<= (- |x':58|) 0))) (<= (- |K:69|) 0)
               (<= |x':58| 0) (not (= |x':58| 0))))
(check-sat)
